c *********************************
c * Circuit generated by BenCGen
c *
c * RippleCarryAdder_112_112_112_InOutT
c *
c * Ports with 1 gate(s): 1
c * Ports with 2 gate(s): 561
c * Total gates: 562
c *********************************
p cnf 786 1909
1 339 0
-1 -339 0
1 -338 0
339 -338 0
-1 -339 338 0
1 113 -341 0
-1 113 341 0
1 -113 341 0
-1 -113 -341 0
341 338 -225 0
-341 338 225 0
341 -338 225 0
-341 -338 -225 0
338 -342 0
341 -342 0
-338 -341 342 0
113 -343 0
1 -343 0
-113 -1 343 0
-342 340 0
-343 340 0
342 343 -340 0
2 114 -345 0
-2 114 345 0
2 -114 345 0
-2 -114 -345 0
345 340 -226 0
-345 340 226 0
345 -340 226 0
-345 -340 -226 0
340 -346 0
345 -346 0
-340 -345 346 0
114 -347 0
2 -347 0
-114 -2 347 0
-346 344 0
-347 344 0
346 347 -344 0
3 115 -349 0
-3 115 349 0
3 -115 349 0
-3 -115 -349 0
349 344 -227 0
-349 344 227 0
349 -344 227 0
-349 -344 -227 0
344 -350 0
349 -350 0
-344 -349 350 0
115 -351 0
3 -351 0
-115 -3 351 0
-350 348 0
-351 348 0
350 351 -348 0
4 116 -353 0
-4 116 353 0
4 -116 353 0
-4 -116 -353 0
353 348 -228 0
-353 348 228 0
353 -348 228 0
-353 -348 -228 0
348 -354 0
353 -354 0
-348 -353 354 0
116 -355 0
4 -355 0
-116 -4 355 0
-354 352 0
-355 352 0
354 355 -352 0
5 117 -357 0
-5 117 357 0
5 -117 357 0
-5 -117 -357 0
357 352 -229 0
-357 352 229 0
357 -352 229 0
-357 -352 -229 0
352 -358 0
357 -358 0
-352 -357 358 0
117 -359 0
5 -359 0
-117 -5 359 0
-358 356 0
-359 356 0
358 359 -356 0
6 118 -361 0
-6 118 361 0
6 -118 361 0
-6 -118 -361 0
361 356 -230 0
-361 356 230 0
361 -356 230 0
-361 -356 -230 0
356 -362 0
361 -362 0
-356 -361 362 0
118 -363 0
6 -363 0
-118 -6 363 0
-362 360 0
-363 360 0
362 363 -360 0
7 119 -365 0
-7 119 365 0
7 -119 365 0
-7 -119 -365 0
365 360 -231 0
-365 360 231 0
365 -360 231 0
-365 -360 -231 0
360 -366 0
365 -366 0
-360 -365 366 0
119 -367 0
7 -367 0
-119 -7 367 0
-366 364 0
-367 364 0
366 367 -364 0
8 120 -369 0
-8 120 369 0
8 -120 369 0
-8 -120 -369 0
369 364 -232 0
-369 364 232 0
369 -364 232 0
-369 -364 -232 0
364 -370 0
369 -370 0
-364 -369 370 0
120 -371 0
8 -371 0
-120 -8 371 0
-370 368 0
-371 368 0
370 371 -368 0
9 121 -373 0
-9 121 373 0
9 -121 373 0
-9 -121 -373 0
373 368 -233 0
-373 368 233 0
373 -368 233 0
-373 -368 -233 0
368 -374 0
373 -374 0
-368 -373 374 0
121 -375 0
9 -375 0
-121 -9 375 0
-374 372 0
-375 372 0
374 375 -372 0
10 122 -377 0
-10 122 377 0
10 -122 377 0
-10 -122 -377 0
377 372 -234 0
-377 372 234 0
377 -372 234 0
-377 -372 -234 0
372 -378 0
377 -378 0
-372 -377 378 0
122 -379 0
10 -379 0
-122 -10 379 0
-378 376 0
-379 376 0
378 379 -376 0
11 123 -381 0
-11 123 381 0
11 -123 381 0
-11 -123 -381 0
381 376 -235 0
-381 376 235 0
381 -376 235 0
-381 -376 -235 0
376 -382 0
381 -382 0
-376 -381 382 0
123 -383 0
11 -383 0
-123 -11 383 0
-382 380 0
-383 380 0
382 383 -380 0
12 124 -385 0
-12 124 385 0
12 -124 385 0
-12 -124 -385 0
385 380 -236 0
-385 380 236 0
385 -380 236 0
-385 -380 -236 0
380 -386 0
385 -386 0
-380 -385 386 0
124 -387 0
12 -387 0
-124 -12 387 0
-386 384 0
-387 384 0
386 387 -384 0
13 125 -389 0
-13 125 389 0
13 -125 389 0
-13 -125 -389 0
389 384 -237 0
-389 384 237 0
389 -384 237 0
-389 -384 -237 0
384 -390 0
389 -390 0
-384 -389 390 0
125 -391 0
13 -391 0
-125 -13 391 0
-390 388 0
-391 388 0
390 391 -388 0
14 126 -393 0
-14 126 393 0
14 -126 393 0
-14 -126 -393 0
393 388 -238 0
-393 388 238 0
393 -388 238 0
-393 -388 -238 0
388 -394 0
393 -394 0
-388 -393 394 0
126 -395 0
14 -395 0
-126 -14 395 0
-394 392 0
-395 392 0
394 395 -392 0
15 127 -397 0
-15 127 397 0
15 -127 397 0
-15 -127 -397 0
397 392 -239 0
-397 392 239 0
397 -392 239 0
-397 -392 -239 0
392 -398 0
397 -398 0
-392 -397 398 0
127 -399 0
15 -399 0
-127 -15 399 0
-398 396 0
-399 396 0
398 399 -396 0
16 128 -401 0
-16 128 401 0
16 -128 401 0
-16 -128 -401 0
401 396 -240 0
-401 396 240 0
401 -396 240 0
-401 -396 -240 0
396 -402 0
401 -402 0
-396 -401 402 0
128 -403 0
16 -403 0
-128 -16 403 0
-402 400 0
-403 400 0
402 403 -400 0
17 129 -405 0
-17 129 405 0
17 -129 405 0
-17 -129 -405 0
405 400 -241 0
-405 400 241 0
405 -400 241 0
-405 -400 -241 0
400 -406 0
405 -406 0
-400 -405 406 0
129 -407 0
17 -407 0
-129 -17 407 0
-406 404 0
-407 404 0
406 407 -404 0
18 130 -409 0
-18 130 409 0
18 -130 409 0
-18 -130 -409 0
409 404 -242 0
-409 404 242 0
409 -404 242 0
-409 -404 -242 0
404 -410 0
409 -410 0
-404 -409 410 0
130 -411 0
18 -411 0
-130 -18 411 0
-410 408 0
-411 408 0
410 411 -408 0
19 131 -413 0
-19 131 413 0
19 -131 413 0
-19 -131 -413 0
413 408 -243 0
-413 408 243 0
413 -408 243 0
-413 -408 -243 0
408 -414 0
413 -414 0
-408 -413 414 0
131 -415 0
19 -415 0
-131 -19 415 0
-414 412 0
-415 412 0
414 415 -412 0
20 132 -417 0
-20 132 417 0
20 -132 417 0
-20 -132 -417 0
417 412 -244 0
-417 412 244 0
417 -412 244 0
-417 -412 -244 0
412 -418 0
417 -418 0
-412 -417 418 0
132 -419 0
20 -419 0
-132 -20 419 0
-418 416 0
-419 416 0
418 419 -416 0
21 133 -421 0
-21 133 421 0
21 -133 421 0
-21 -133 -421 0
421 416 -245 0
-421 416 245 0
421 -416 245 0
-421 -416 -245 0
416 -422 0
421 -422 0
-416 -421 422 0
133 -423 0
21 -423 0
-133 -21 423 0
-422 420 0
-423 420 0
422 423 -420 0
22 134 -425 0
-22 134 425 0
22 -134 425 0
-22 -134 -425 0
425 420 -246 0
-425 420 246 0
425 -420 246 0
-425 -420 -246 0
420 -426 0
425 -426 0
-420 -425 426 0
134 -427 0
22 -427 0
-134 -22 427 0
-426 424 0
-427 424 0
426 427 -424 0
23 135 -429 0
-23 135 429 0
23 -135 429 0
-23 -135 -429 0
429 424 -247 0
-429 424 247 0
429 -424 247 0
-429 -424 -247 0
424 -430 0
429 -430 0
-424 -429 430 0
135 -431 0
23 -431 0
-135 -23 431 0
-430 428 0
-431 428 0
430 431 -428 0
24 136 -433 0
-24 136 433 0
24 -136 433 0
-24 -136 -433 0
433 428 -248 0
-433 428 248 0
433 -428 248 0
-433 -428 -248 0
428 -434 0
433 -434 0
-428 -433 434 0
136 -435 0
24 -435 0
-136 -24 435 0
-434 432 0
-435 432 0
434 435 -432 0
25 137 -437 0
-25 137 437 0
25 -137 437 0
-25 -137 -437 0
437 432 -249 0
-437 432 249 0
437 -432 249 0
-437 -432 -249 0
432 -438 0
437 -438 0
-432 -437 438 0
137 -439 0
25 -439 0
-137 -25 439 0
-438 436 0
-439 436 0
438 439 -436 0
26 138 -441 0
-26 138 441 0
26 -138 441 0
-26 -138 -441 0
441 436 -250 0
-441 436 250 0
441 -436 250 0
-441 -436 -250 0
436 -442 0
441 -442 0
-436 -441 442 0
138 -443 0
26 -443 0
-138 -26 443 0
-442 440 0
-443 440 0
442 443 -440 0
27 139 -445 0
-27 139 445 0
27 -139 445 0
-27 -139 -445 0
445 440 -251 0
-445 440 251 0
445 -440 251 0
-445 -440 -251 0
440 -446 0
445 -446 0
-440 -445 446 0
139 -447 0
27 -447 0
-139 -27 447 0
-446 444 0
-447 444 0
446 447 -444 0
28 140 -449 0
-28 140 449 0
28 -140 449 0
-28 -140 -449 0
449 444 -252 0
-449 444 252 0
449 -444 252 0
-449 -444 -252 0
444 -450 0
449 -450 0
-444 -449 450 0
140 -451 0
28 -451 0
-140 -28 451 0
-450 448 0
-451 448 0
450 451 -448 0
29 141 -453 0
-29 141 453 0
29 -141 453 0
-29 -141 -453 0
453 448 -253 0
-453 448 253 0
453 -448 253 0
-453 -448 -253 0
448 -454 0
453 -454 0
-448 -453 454 0
141 -455 0
29 -455 0
-141 -29 455 0
-454 452 0
-455 452 0
454 455 -452 0
30 142 -457 0
-30 142 457 0
30 -142 457 0
-30 -142 -457 0
457 452 -254 0
-457 452 254 0
457 -452 254 0
-457 -452 -254 0
452 -458 0
457 -458 0
-452 -457 458 0
142 -459 0
30 -459 0
-142 -30 459 0
-458 456 0
-459 456 0
458 459 -456 0
31 143 -461 0
-31 143 461 0
31 -143 461 0
-31 -143 -461 0
461 456 -255 0
-461 456 255 0
461 -456 255 0
-461 -456 -255 0
456 -462 0
461 -462 0
-456 -461 462 0
143 -463 0
31 -463 0
-143 -31 463 0
-462 460 0
-463 460 0
462 463 -460 0
32 144 -465 0
-32 144 465 0
32 -144 465 0
-32 -144 -465 0
465 460 -256 0
-465 460 256 0
465 -460 256 0
-465 -460 -256 0
460 -466 0
465 -466 0
-460 -465 466 0
144 -467 0
32 -467 0
-144 -32 467 0
-466 464 0
-467 464 0
466 467 -464 0
33 145 -469 0
-33 145 469 0
33 -145 469 0
-33 -145 -469 0
469 464 -257 0
-469 464 257 0
469 -464 257 0
-469 -464 -257 0
464 -470 0
469 -470 0
-464 -469 470 0
145 -471 0
33 -471 0
-145 -33 471 0
-470 468 0
-471 468 0
470 471 -468 0
34 146 -473 0
-34 146 473 0
34 -146 473 0
-34 -146 -473 0
473 468 -258 0
-473 468 258 0
473 -468 258 0
-473 -468 -258 0
468 -474 0
473 -474 0
-468 -473 474 0
146 -475 0
34 -475 0
-146 -34 475 0
-474 472 0
-475 472 0
474 475 -472 0
35 147 -477 0
-35 147 477 0
35 -147 477 0
-35 -147 -477 0
477 472 -259 0
-477 472 259 0
477 -472 259 0
-477 -472 -259 0
472 -478 0
477 -478 0
-472 -477 478 0
147 -479 0
35 -479 0
-147 -35 479 0
-478 476 0
-479 476 0
478 479 -476 0
36 148 -481 0
-36 148 481 0
36 -148 481 0
-36 -148 -481 0
481 476 -260 0
-481 476 260 0
481 -476 260 0
-481 -476 -260 0
476 -482 0
481 -482 0
-476 -481 482 0
148 -483 0
36 -483 0
-148 -36 483 0
-482 480 0
-483 480 0
482 483 -480 0
37 149 -485 0
-37 149 485 0
37 -149 485 0
-37 -149 -485 0
485 480 -261 0
-485 480 261 0
485 -480 261 0
-485 -480 -261 0
480 -486 0
485 -486 0
-480 -485 486 0
149 -487 0
37 -487 0
-149 -37 487 0
-486 484 0
-487 484 0
486 487 -484 0
38 150 -489 0
-38 150 489 0
38 -150 489 0
-38 -150 -489 0
489 484 -262 0
-489 484 262 0
489 -484 262 0
-489 -484 -262 0
484 -490 0
489 -490 0
-484 -489 490 0
150 -491 0
38 -491 0
-150 -38 491 0
-490 488 0
-491 488 0
490 491 -488 0
39 151 -493 0
-39 151 493 0
39 -151 493 0
-39 -151 -493 0
493 488 -263 0
-493 488 263 0
493 -488 263 0
-493 -488 -263 0
488 -494 0
493 -494 0
-488 -493 494 0
151 -495 0
39 -495 0
-151 -39 495 0
-494 492 0
-495 492 0
494 495 -492 0
40 152 -497 0
-40 152 497 0
40 -152 497 0
-40 -152 -497 0
497 492 -264 0
-497 492 264 0
497 -492 264 0
-497 -492 -264 0
492 -498 0
497 -498 0
-492 -497 498 0
152 -499 0
40 -499 0
-152 -40 499 0
-498 496 0
-499 496 0
498 499 -496 0
41 153 -501 0
-41 153 501 0
41 -153 501 0
-41 -153 -501 0
501 496 -265 0
-501 496 265 0
501 -496 265 0
-501 -496 -265 0
496 -502 0
501 -502 0
-496 -501 502 0
153 -503 0
41 -503 0
-153 -41 503 0
-502 500 0
-503 500 0
502 503 -500 0
42 154 -505 0
-42 154 505 0
42 -154 505 0
-42 -154 -505 0
505 500 -266 0
-505 500 266 0
505 -500 266 0
-505 -500 -266 0
500 -506 0
505 -506 0
-500 -505 506 0
154 -507 0
42 -507 0
-154 -42 507 0
-506 504 0
-507 504 0
506 507 -504 0
43 155 -509 0
-43 155 509 0
43 -155 509 0
-43 -155 -509 0
509 504 -267 0
-509 504 267 0
509 -504 267 0
-509 -504 -267 0
504 -510 0
509 -510 0
-504 -509 510 0
155 -511 0
43 -511 0
-155 -43 511 0
-510 508 0
-511 508 0
510 511 -508 0
44 156 -513 0
-44 156 513 0
44 -156 513 0
-44 -156 -513 0
513 508 -268 0
-513 508 268 0
513 -508 268 0
-513 -508 -268 0
508 -514 0
513 -514 0
-508 -513 514 0
156 -515 0
44 -515 0
-156 -44 515 0
-514 512 0
-515 512 0
514 515 -512 0
45 157 -517 0
-45 157 517 0
45 -157 517 0
-45 -157 -517 0
517 512 -269 0
-517 512 269 0
517 -512 269 0
-517 -512 -269 0
512 -518 0
517 -518 0
-512 -517 518 0
157 -519 0
45 -519 0
-157 -45 519 0
-518 516 0
-519 516 0
518 519 -516 0
46 158 -521 0
-46 158 521 0
46 -158 521 0
-46 -158 -521 0
521 516 -270 0
-521 516 270 0
521 -516 270 0
-521 -516 -270 0
516 -522 0
521 -522 0
-516 -521 522 0
158 -523 0
46 -523 0
-158 -46 523 0
-522 520 0
-523 520 0
522 523 -520 0
47 159 -525 0
-47 159 525 0
47 -159 525 0
-47 -159 -525 0
525 520 -271 0
-525 520 271 0
525 -520 271 0
-525 -520 -271 0
520 -526 0
525 -526 0
-520 -525 526 0
159 -527 0
47 -527 0
-159 -47 527 0
-526 524 0
-527 524 0
526 527 -524 0
48 160 -529 0
-48 160 529 0
48 -160 529 0
-48 -160 -529 0
529 524 -272 0
-529 524 272 0
529 -524 272 0
-529 -524 -272 0
524 -530 0
529 -530 0
-524 -529 530 0
160 -531 0
48 -531 0
-160 -48 531 0
-530 528 0
-531 528 0
530 531 -528 0
49 161 -533 0
-49 161 533 0
49 -161 533 0
-49 -161 -533 0
533 528 -273 0
-533 528 273 0
533 -528 273 0
-533 -528 -273 0
528 -534 0
533 -534 0
-528 -533 534 0
161 -535 0
49 -535 0
-161 -49 535 0
-534 532 0
-535 532 0
534 535 -532 0
50 162 -537 0
-50 162 537 0
50 -162 537 0
-50 -162 -537 0
537 532 -274 0
-537 532 274 0
537 -532 274 0
-537 -532 -274 0
532 -538 0
537 -538 0
-532 -537 538 0
162 -539 0
50 -539 0
-162 -50 539 0
-538 536 0
-539 536 0
538 539 -536 0
51 163 -541 0
-51 163 541 0
51 -163 541 0
-51 -163 -541 0
541 536 -275 0
-541 536 275 0
541 -536 275 0
-541 -536 -275 0
536 -542 0
541 -542 0
-536 -541 542 0
163 -543 0
51 -543 0
-163 -51 543 0
-542 540 0
-543 540 0
542 543 -540 0
52 164 -545 0
-52 164 545 0
52 -164 545 0
-52 -164 -545 0
545 540 -276 0
-545 540 276 0
545 -540 276 0
-545 -540 -276 0
540 -546 0
545 -546 0
-540 -545 546 0
164 -547 0
52 -547 0
-164 -52 547 0
-546 544 0
-547 544 0
546 547 -544 0
53 165 -549 0
-53 165 549 0
53 -165 549 0
-53 -165 -549 0
549 544 -277 0
-549 544 277 0
549 -544 277 0
-549 -544 -277 0
544 -550 0
549 -550 0
-544 -549 550 0
165 -551 0
53 -551 0
-165 -53 551 0
-550 548 0
-551 548 0
550 551 -548 0
54 166 -553 0
-54 166 553 0
54 -166 553 0
-54 -166 -553 0
553 548 -278 0
-553 548 278 0
553 -548 278 0
-553 -548 -278 0
548 -554 0
553 -554 0
-548 -553 554 0
166 -555 0
54 -555 0
-166 -54 555 0
-554 552 0
-555 552 0
554 555 -552 0
55 167 -557 0
-55 167 557 0
55 -167 557 0
-55 -167 -557 0
557 552 -279 0
-557 552 279 0
557 -552 279 0
-557 -552 -279 0
552 -558 0
557 -558 0
-552 -557 558 0
167 -559 0
55 -559 0
-167 -55 559 0
-558 556 0
-559 556 0
558 559 -556 0
56 168 -561 0
-56 168 561 0
56 -168 561 0
-56 -168 -561 0
561 556 -280 0
-561 556 280 0
561 -556 280 0
-561 -556 -280 0
556 -562 0
561 -562 0
-556 -561 562 0
168 -563 0
56 -563 0
-168 -56 563 0
-562 560 0
-563 560 0
562 563 -560 0
57 169 -565 0
-57 169 565 0
57 -169 565 0
-57 -169 -565 0
565 560 -281 0
-565 560 281 0
565 -560 281 0
-565 -560 -281 0
560 -566 0
565 -566 0
-560 -565 566 0
169 -567 0
57 -567 0
-169 -57 567 0
-566 564 0
-567 564 0
566 567 -564 0
58 170 -569 0
-58 170 569 0
58 -170 569 0
-58 -170 -569 0
569 564 -282 0
-569 564 282 0
569 -564 282 0
-569 -564 -282 0
564 -570 0
569 -570 0
-564 -569 570 0
170 -571 0
58 -571 0
-170 -58 571 0
-570 568 0
-571 568 0
570 571 -568 0
59 171 -573 0
-59 171 573 0
59 -171 573 0
-59 -171 -573 0
573 568 -283 0
-573 568 283 0
573 -568 283 0
-573 -568 -283 0
568 -574 0
573 -574 0
-568 -573 574 0
171 -575 0
59 -575 0
-171 -59 575 0
-574 572 0
-575 572 0
574 575 -572 0
60 172 -577 0
-60 172 577 0
60 -172 577 0
-60 -172 -577 0
577 572 -284 0
-577 572 284 0
577 -572 284 0
-577 -572 -284 0
572 -578 0
577 -578 0
-572 -577 578 0
172 -579 0
60 -579 0
-172 -60 579 0
-578 576 0
-579 576 0
578 579 -576 0
61 173 -581 0
-61 173 581 0
61 -173 581 0
-61 -173 -581 0
581 576 -285 0
-581 576 285 0
581 -576 285 0
-581 -576 -285 0
576 -582 0
581 -582 0
-576 -581 582 0
173 -583 0
61 -583 0
-173 -61 583 0
-582 580 0
-583 580 0
582 583 -580 0
62 174 -585 0
-62 174 585 0
62 -174 585 0
-62 -174 -585 0
585 580 -286 0
-585 580 286 0
585 -580 286 0
-585 -580 -286 0
580 -586 0
585 -586 0
-580 -585 586 0
174 -587 0
62 -587 0
-174 -62 587 0
-586 584 0
-587 584 0
586 587 -584 0
63 175 -589 0
-63 175 589 0
63 -175 589 0
-63 -175 -589 0
589 584 -287 0
-589 584 287 0
589 -584 287 0
-589 -584 -287 0
584 -590 0
589 -590 0
-584 -589 590 0
175 -591 0
63 -591 0
-175 -63 591 0
-590 588 0
-591 588 0
590 591 -588 0
64 176 -593 0
-64 176 593 0
64 -176 593 0
-64 -176 -593 0
593 588 -288 0
-593 588 288 0
593 -588 288 0
-593 -588 -288 0
588 -594 0
593 -594 0
-588 -593 594 0
176 -595 0
64 -595 0
-176 -64 595 0
-594 592 0
-595 592 0
594 595 -592 0
65 177 -597 0
-65 177 597 0
65 -177 597 0
-65 -177 -597 0
597 592 -289 0
-597 592 289 0
597 -592 289 0
-597 -592 -289 0
592 -598 0
597 -598 0
-592 -597 598 0
177 -599 0
65 -599 0
-177 -65 599 0
-598 596 0
-599 596 0
598 599 -596 0
66 178 -601 0
-66 178 601 0
66 -178 601 0
-66 -178 -601 0
601 596 -290 0
-601 596 290 0
601 -596 290 0
-601 -596 -290 0
596 -602 0
601 -602 0
-596 -601 602 0
178 -603 0
66 -603 0
-178 -66 603 0
-602 600 0
-603 600 0
602 603 -600 0
67 179 -605 0
-67 179 605 0
67 -179 605 0
-67 -179 -605 0
605 600 -291 0
-605 600 291 0
605 -600 291 0
-605 -600 -291 0
600 -606 0
605 -606 0
-600 -605 606 0
179 -607 0
67 -607 0
-179 -67 607 0
-606 604 0
-607 604 0
606 607 -604 0
68 180 -609 0
-68 180 609 0
68 -180 609 0
-68 -180 -609 0
609 604 -292 0
-609 604 292 0
609 -604 292 0
-609 -604 -292 0
604 -610 0
609 -610 0
-604 -609 610 0
180 -611 0
68 -611 0
-180 -68 611 0
-610 608 0
-611 608 0
610 611 -608 0
69 181 -613 0
-69 181 613 0
69 -181 613 0
-69 -181 -613 0
613 608 -293 0
-613 608 293 0
613 -608 293 0
-613 -608 -293 0
608 -614 0
613 -614 0
-608 -613 614 0
181 -615 0
69 -615 0
-181 -69 615 0
-614 612 0
-615 612 0
614 615 -612 0
70 182 -617 0
-70 182 617 0
70 -182 617 0
-70 -182 -617 0
617 612 -294 0
-617 612 294 0
617 -612 294 0
-617 -612 -294 0
612 -618 0
617 -618 0
-612 -617 618 0
182 -619 0
70 -619 0
-182 -70 619 0
-618 616 0
-619 616 0
618 619 -616 0
71 183 -621 0
-71 183 621 0
71 -183 621 0
-71 -183 -621 0
621 616 -295 0
-621 616 295 0
621 -616 295 0
-621 -616 -295 0
616 -622 0
621 -622 0
-616 -621 622 0
183 -623 0
71 -623 0
-183 -71 623 0
-622 620 0
-623 620 0
622 623 -620 0
72 184 -625 0
-72 184 625 0
72 -184 625 0
-72 -184 -625 0
625 620 -296 0
-625 620 296 0
625 -620 296 0
-625 -620 -296 0
620 -626 0
625 -626 0
-620 -625 626 0
184 -627 0
72 -627 0
-184 -72 627 0
-626 624 0
-627 624 0
626 627 -624 0
73 185 -629 0
-73 185 629 0
73 -185 629 0
-73 -185 -629 0
629 624 -297 0
-629 624 297 0
629 -624 297 0
-629 -624 -297 0
624 -630 0
629 -630 0
-624 -629 630 0
185 -631 0
73 -631 0
-185 -73 631 0
-630 628 0
-631 628 0
630 631 -628 0
74 186 -633 0
-74 186 633 0
74 -186 633 0
-74 -186 -633 0
633 628 -298 0
-633 628 298 0
633 -628 298 0
-633 -628 -298 0
628 -634 0
633 -634 0
-628 -633 634 0
186 -635 0
74 -635 0
-186 -74 635 0
-634 632 0
-635 632 0
634 635 -632 0
75 187 -637 0
-75 187 637 0
75 -187 637 0
-75 -187 -637 0
637 632 -299 0
-637 632 299 0
637 -632 299 0
-637 -632 -299 0
632 -638 0
637 -638 0
-632 -637 638 0
187 -639 0
75 -639 0
-187 -75 639 0
-638 636 0
-639 636 0
638 639 -636 0
76 188 -641 0
-76 188 641 0
76 -188 641 0
-76 -188 -641 0
641 636 -300 0
-641 636 300 0
641 -636 300 0
-641 -636 -300 0
636 -642 0
641 -642 0
-636 -641 642 0
188 -643 0
76 -643 0
-188 -76 643 0
-642 640 0
-643 640 0
642 643 -640 0
77 189 -645 0
-77 189 645 0
77 -189 645 0
-77 -189 -645 0
645 640 -301 0
-645 640 301 0
645 -640 301 0
-645 -640 -301 0
640 -646 0
645 -646 0
-640 -645 646 0
189 -647 0
77 -647 0
-189 -77 647 0
-646 644 0
-647 644 0
646 647 -644 0
78 190 -649 0
-78 190 649 0
78 -190 649 0
-78 -190 -649 0
649 644 -302 0
-649 644 302 0
649 -644 302 0
-649 -644 -302 0
644 -650 0
649 -650 0
-644 -649 650 0
190 -651 0
78 -651 0
-190 -78 651 0
-650 648 0
-651 648 0
650 651 -648 0
79 191 -653 0
-79 191 653 0
79 -191 653 0
-79 -191 -653 0
653 648 -303 0
-653 648 303 0
653 -648 303 0
-653 -648 -303 0
648 -654 0
653 -654 0
-648 -653 654 0
191 -655 0
79 -655 0
-191 -79 655 0
-654 652 0
-655 652 0
654 655 -652 0
80 192 -657 0
-80 192 657 0
80 -192 657 0
-80 -192 -657 0
657 652 -304 0
-657 652 304 0
657 -652 304 0
-657 -652 -304 0
652 -658 0
657 -658 0
-652 -657 658 0
192 -659 0
80 -659 0
-192 -80 659 0
-658 656 0
-659 656 0
658 659 -656 0
81 193 -661 0
-81 193 661 0
81 -193 661 0
-81 -193 -661 0
661 656 -305 0
-661 656 305 0
661 -656 305 0
-661 -656 -305 0
656 -662 0
661 -662 0
-656 -661 662 0
193 -663 0
81 -663 0
-193 -81 663 0
-662 660 0
-663 660 0
662 663 -660 0
82 194 -665 0
-82 194 665 0
82 -194 665 0
-82 -194 -665 0
665 660 -306 0
-665 660 306 0
665 -660 306 0
-665 -660 -306 0
660 -666 0
665 -666 0
-660 -665 666 0
194 -667 0
82 -667 0
-194 -82 667 0
-666 664 0
-667 664 0
666 667 -664 0
83 195 -669 0
-83 195 669 0
83 -195 669 0
-83 -195 -669 0
669 664 -307 0
-669 664 307 0
669 -664 307 0
-669 -664 -307 0
664 -670 0
669 -670 0
-664 -669 670 0
195 -671 0
83 -671 0
-195 -83 671 0
-670 668 0
-671 668 0
670 671 -668 0
84 196 -673 0
-84 196 673 0
84 -196 673 0
-84 -196 -673 0
673 668 -308 0
-673 668 308 0
673 -668 308 0
-673 -668 -308 0
668 -674 0
673 -674 0
-668 -673 674 0
196 -675 0
84 -675 0
-196 -84 675 0
-674 672 0
-675 672 0
674 675 -672 0
85 197 -677 0
-85 197 677 0
85 -197 677 0
-85 -197 -677 0
677 672 -309 0
-677 672 309 0
677 -672 309 0
-677 -672 -309 0
672 -678 0
677 -678 0
-672 -677 678 0
197 -679 0
85 -679 0
-197 -85 679 0
-678 676 0
-679 676 0
678 679 -676 0
86 198 -681 0
-86 198 681 0
86 -198 681 0
-86 -198 -681 0
681 676 -310 0
-681 676 310 0
681 -676 310 0
-681 -676 -310 0
676 -682 0
681 -682 0
-676 -681 682 0
198 -683 0
86 -683 0
-198 -86 683 0
-682 680 0
-683 680 0
682 683 -680 0
87 199 -685 0
-87 199 685 0
87 -199 685 0
-87 -199 -685 0
685 680 -311 0
-685 680 311 0
685 -680 311 0
-685 -680 -311 0
680 -686 0
685 -686 0
-680 -685 686 0
199 -687 0
87 -687 0
-199 -87 687 0
-686 684 0
-687 684 0
686 687 -684 0
88 200 -689 0
-88 200 689 0
88 -200 689 0
-88 -200 -689 0
689 684 -312 0
-689 684 312 0
689 -684 312 0
-689 -684 -312 0
684 -690 0
689 -690 0
-684 -689 690 0
200 -691 0
88 -691 0
-200 -88 691 0
-690 688 0
-691 688 0
690 691 -688 0
89 201 -693 0
-89 201 693 0
89 -201 693 0
-89 -201 -693 0
693 688 -313 0
-693 688 313 0
693 -688 313 0
-693 -688 -313 0
688 -694 0
693 -694 0
-688 -693 694 0
201 -695 0
89 -695 0
-201 -89 695 0
-694 692 0
-695 692 0
694 695 -692 0
90 202 -697 0
-90 202 697 0
90 -202 697 0
-90 -202 -697 0
697 692 -314 0
-697 692 314 0
697 -692 314 0
-697 -692 -314 0
692 -698 0
697 -698 0
-692 -697 698 0
202 -699 0
90 -699 0
-202 -90 699 0
-698 696 0
-699 696 0
698 699 -696 0
91 203 -701 0
-91 203 701 0
91 -203 701 0
-91 -203 -701 0
701 696 -315 0
-701 696 315 0
701 -696 315 0
-701 -696 -315 0
696 -702 0
701 -702 0
-696 -701 702 0
203 -703 0
91 -703 0
-203 -91 703 0
-702 700 0
-703 700 0
702 703 -700 0
92 204 -705 0
-92 204 705 0
92 -204 705 0
-92 -204 -705 0
705 700 -316 0
-705 700 316 0
705 -700 316 0
-705 -700 -316 0
700 -706 0
705 -706 0
-700 -705 706 0
204 -707 0
92 -707 0
-204 -92 707 0
-706 704 0
-707 704 0
706 707 -704 0
93 205 -709 0
-93 205 709 0
93 -205 709 0
-93 -205 -709 0
709 704 -317 0
-709 704 317 0
709 -704 317 0
-709 -704 -317 0
704 -710 0
709 -710 0
-704 -709 710 0
205 -711 0
93 -711 0
-205 -93 711 0
-710 708 0
-711 708 0
710 711 -708 0
94 206 -713 0
-94 206 713 0
94 -206 713 0
-94 -206 -713 0
713 708 -318 0
-713 708 318 0
713 -708 318 0
-713 -708 -318 0
708 -714 0
713 -714 0
-708 -713 714 0
206 -715 0
94 -715 0
-206 -94 715 0
-714 712 0
-715 712 0
714 715 -712 0
95 207 -717 0
-95 207 717 0
95 -207 717 0
-95 -207 -717 0
717 712 -319 0
-717 712 319 0
717 -712 319 0
-717 -712 -319 0
712 -718 0
717 -718 0
-712 -717 718 0
207 -719 0
95 -719 0
-207 -95 719 0
-718 716 0
-719 716 0
718 719 -716 0
96 208 -721 0
-96 208 721 0
96 -208 721 0
-96 -208 -721 0
721 716 -320 0
-721 716 320 0
721 -716 320 0
-721 -716 -320 0
716 -722 0
721 -722 0
-716 -721 722 0
208 -723 0
96 -723 0
-208 -96 723 0
-722 720 0
-723 720 0
722 723 -720 0
97 209 -725 0
-97 209 725 0
97 -209 725 0
-97 -209 -725 0
725 720 -321 0
-725 720 321 0
725 -720 321 0
-725 -720 -321 0
720 -726 0
725 -726 0
-720 -725 726 0
209 -727 0
97 -727 0
-209 -97 727 0
-726 724 0
-727 724 0
726 727 -724 0
98 210 -729 0
-98 210 729 0
98 -210 729 0
-98 -210 -729 0
729 724 -322 0
-729 724 322 0
729 -724 322 0
-729 -724 -322 0
724 -730 0
729 -730 0
-724 -729 730 0
210 -731 0
98 -731 0
-210 -98 731 0
-730 728 0
-731 728 0
730 731 -728 0
99 211 -733 0
-99 211 733 0
99 -211 733 0
-99 -211 -733 0
733 728 -323 0
-733 728 323 0
733 -728 323 0
-733 -728 -323 0
728 -734 0
733 -734 0
-728 -733 734 0
211 -735 0
99 -735 0
-211 -99 735 0
-734 732 0
-735 732 0
734 735 -732 0
100 212 -737 0
-100 212 737 0
100 -212 737 0
-100 -212 -737 0
737 732 -324 0
-737 732 324 0
737 -732 324 0
-737 -732 -324 0
732 -738 0
737 -738 0
-732 -737 738 0
212 -739 0
100 -739 0
-212 -100 739 0
-738 736 0
-739 736 0
738 739 -736 0
101 213 -741 0
-101 213 741 0
101 -213 741 0
-101 -213 -741 0
741 736 -325 0
-741 736 325 0
741 -736 325 0
-741 -736 -325 0
736 -742 0
741 -742 0
-736 -741 742 0
213 -743 0
101 -743 0
-213 -101 743 0
-742 740 0
-743 740 0
742 743 -740 0
102 214 -745 0
-102 214 745 0
102 -214 745 0
-102 -214 -745 0
745 740 -326 0
-745 740 326 0
745 -740 326 0
-745 -740 -326 0
740 -746 0
745 -746 0
-740 -745 746 0
214 -747 0
102 -747 0
-214 -102 747 0
-746 744 0
-747 744 0
746 747 -744 0
103 215 -749 0
-103 215 749 0
103 -215 749 0
-103 -215 -749 0
749 744 -327 0
-749 744 327 0
749 -744 327 0
-749 -744 -327 0
744 -750 0
749 -750 0
-744 -749 750 0
215 -751 0
103 -751 0
-215 -103 751 0
-750 748 0
-751 748 0
750 751 -748 0
104 216 -753 0
-104 216 753 0
104 -216 753 0
-104 -216 -753 0
753 748 -328 0
-753 748 328 0
753 -748 328 0
-753 -748 -328 0
748 -754 0
753 -754 0
-748 -753 754 0
216 -755 0
104 -755 0
-216 -104 755 0
-754 752 0
-755 752 0
754 755 -752 0
105 217 -757 0
-105 217 757 0
105 -217 757 0
-105 -217 -757 0
757 752 -329 0
-757 752 329 0
757 -752 329 0
-757 -752 -329 0
752 -758 0
757 -758 0
-752 -757 758 0
217 -759 0
105 -759 0
-217 -105 759 0
-758 756 0
-759 756 0
758 759 -756 0
106 218 -761 0
-106 218 761 0
106 -218 761 0
-106 -218 -761 0
761 756 -330 0
-761 756 330 0
761 -756 330 0
-761 -756 -330 0
756 -762 0
761 -762 0
-756 -761 762 0
218 -763 0
106 -763 0
-218 -106 763 0
-762 760 0
-763 760 0
762 763 -760 0
107 219 -765 0
-107 219 765 0
107 -219 765 0
-107 -219 -765 0
765 760 -331 0
-765 760 331 0
765 -760 331 0
-765 -760 -331 0
760 -766 0
765 -766 0
-760 -765 766 0
219 -767 0
107 -767 0
-219 -107 767 0
-766 764 0
-767 764 0
766 767 -764 0
108 220 -769 0
-108 220 769 0
108 -220 769 0
-108 -220 -769 0
769 764 -332 0
-769 764 332 0
769 -764 332 0
-769 -764 -332 0
764 -770 0
769 -770 0
-764 -769 770 0
220 -771 0
108 -771 0
-220 -108 771 0
-770 768 0
-771 768 0
770 771 -768 0
109 221 -773 0
-109 221 773 0
109 -221 773 0
-109 -221 -773 0
773 768 -333 0
-773 768 333 0
773 -768 333 0
-773 -768 -333 0
768 -774 0
773 -774 0
-768 -773 774 0
221 -775 0
109 -775 0
-221 -109 775 0
-774 772 0
-775 772 0
774 775 -772 0
110 222 -777 0
-110 222 777 0
110 -222 777 0
-110 -222 -777 0
777 772 -334 0
-777 772 334 0
777 -772 334 0
-777 -772 -334 0
772 -778 0
777 -778 0
-772 -777 778 0
222 -779 0
110 -779 0
-222 -110 779 0
-778 776 0
-779 776 0
778 779 -776 0
111 223 -781 0
-111 223 781 0
111 -223 781 0
-111 -223 -781 0
781 776 -335 0
-781 776 335 0
781 -776 335 0
-781 -776 -335 0
776 -782 0
781 -782 0
-776 -781 782 0
223 -783 0
111 -783 0
-223 -111 783 0
-782 780 0
-783 780 0
782 783 -780 0
112 224 -784 0
-112 224 784 0
112 -224 784 0
-112 -224 -784 0
784 780 -336 0
-784 780 336 0
784 -780 336 0
-784 -780 -336 0
780 -785 0
784 -785 0
-780 -784 785 0
224 -786 0
112 -786 0
-224 -112 786 0
-785 337 0
-786 337 0
785 786 -337 0
